
  32    4
  10   10   10   10

   0   0   0   0   0   7 2 3 4 5 10 11 14 
   5   1   1   1   0   4 16 12 9 6 
   5   0   4   3   1   6 23 19 18 16 15 9 
   4   3   0   1   5   5 23 18 15 12 8 
   9   2   4   0   5   3 17 15 7 
   3   3   2   7   0   7 31 30 23 21 19 17 13 
   2   5   0   4   2   7 31 30 29 23 21 19 18 
   8   5   0   4   2   6 30 29 28 21 20 19 
   2   2   0   6   3   5 31 30 21 20 17 
   7   0   5   5   5   4 31 30 23 18 
   2   0   6   3   5   4 23 22 21 17 
   9   0   2   5   6   4 31 30 24 20 
  10   0   4   8   5   3 24 20 18 
   6   7   4   0   3   3 24 23 18 
   7   0   5   2   3   3 28 24 20 
  10   4   0   3   3   3 29 21 20 
  10   0   5   5   6   5 29 28 27 26 25 
   7   0   1   2   7   3 28 25 22 
   6   0   2   3   3   3 27 26 24 
  10   3   5   0   1   2 25 22 
   1   5   7   4   0   3 27 26 25 
   1   4   3   0   2   2 27 26 
   5   0   6   4   3   2 26 25 
   1   5   0   4   6   1 25 
   6   5   2   0  10   1 32
   1   5   5   3   0   1 32
   2   6   6   0   6   1 32
  10   4   5   4   0   1 32
  10   4   4   1   0   1 32
  10   5   0   9   3   1 32
   5   2   0   5   1   1 32
   0   0   0   0   0   0 
